22 22
3 8
3 5
4 5
7 10
6 8
7 9
2 4
1 4
8 4
10 1
6 8
10 3
7 8
9 1
2 6
7 7
5 8
7 1
1 10
3 10
6 10
10 9
20 14 77
18 18 62
16 19 55
15 10 50
17 12 84
17 16 66
11 19 68
14 19 83
19 15 71
20 13 52
18 13 90
14 18 70
19 18 54
17 12 73
10 17 56
12 15 65
19 12 86
16 18 92
13 16 67
15 14 90
16 12 79
12 12 100
